set VV := 0 1 2 3 4 5 6 7 8 9 10 11 12 13 14 15 16 17 18 19 20 21 22 23 ;
set VS := 0 1 2 3 4 5 6 7 8 9 10 11 12 13 14 15 16 17 18 19 20 21 22 23 24 25 26 27 28 29 30 31 32 33 34 35 36 37 38 39 40 41 42 43 44 45 46 47 48 49 50 51 52 ;
param cv := 
0 22
1 25
2 21
3 23
4 25
5 15
6 22
7 10
8 21
9 14
10 10
11 13
12 11
13 13
14 17
15 11
16 23
17 12
18 16
19 16
20 16
21 19
22 23
23 16
;
param cs := 
0 22
1 33
2 21
3 31
4 34
5 27
6 23
7 39
8 23
9 21
10 40
11 38
12 38
13 21
14 21
15 36
16 39
17 31
18 35
19 32
20 27
21 24
22 39
23 28
24 35
25 40
26 40
27 33
28 32
29 22
30 34
31 23
32 20
33 27
34 36
35 26
36 28
37 32
38 32
39 28
40 34
41 21
42 24
43 37
44 24
45 40
46 22
47 20
48 40
49 35
50 33
51 27
52 35
;
param bv:	 0 1 2 3 4 5 6 7 8 9 10 11 12 13 14 15 16 17 18 19 20 21 22 23 := 
		0 0 0 0 0 0 24 0 0 0 0 0 0 0 0 0 25 0 0 0 0 0 0 0 16 
		1 0 0 0 0 0 16 16 0 22 0 0 0 0 18 0 0 0 0 15 0 0 17 0 0 
		2 0 0 0 0 0 0 19 0 0 0 0 0 0 0 0 0 0 0 0 0 0 0 23 0 
		3 0 0 0 0 0 0 0 0 0 0 15 0 0 0 0 0 0 0 0 0 0 0 0 0 
		4 0 0 0 0 0 0 0 0 0 0 0 0 0 0 0 0 0 0 0 0 0 10 0 0 
		5 0 0 0 0 0 0 0 0 0 0 0 0 0 0 0 0 0 0 20 0 0 0 0 0 
		6 0 0 0 0 0 0 0 0 0 0 0 19 0 0 0 0 0 0 0 0 0 0 0 0 
		7 0 0 0 0 0 0 0 0 0 0 0 16 0 0 0 0 22 0 0 0 0 0 0 0 
		8 0 0 0 0 0 0 0 0 0 0 0 0 15 0 0 0 0 0 0 0 0 0 0 17 
		9 0 0 0 0 0 0 0 0 0 0 0 0 0 0 0 23 10 19 0 0 0 0 0 0 
		10 0 0 0 0 0 0 0 0 0 0 0 0 0 0 0 21 0 18 0 0 0 0 0 0 
		11 0 0 0 0 0 0 0 0 0 0 0 0 0 18 0 0 0 14 0 0 0 0 20 0 
		12 0 0 0 0 0 0 0 0 0 0 0 0 0 0 0 0 0 0 0 25 25 0 0 23 
		13 0 0 0 0 0 0 0 0 0 0 0 0 0 0 0 0 0 0 0 0 11 0 0 22 
		14 0 0 0 0 0 0 0 0 0 0 0 0 0 0 0 0 0 0 0 20 15 0 18 0 
		15 0 0 0 0 0 0 0 0 0 0 0 0 0 0 0 0 0 0 0 0 0 18 0 0 
		16 0 0 0 0 0 0 0 0 0 0 0 0 0 0 0 0 0 0 0 0 0 0 0 0 
		17 0 0 0 0 0 0 0 0 0 0 0 0 0 0 0 0 0 0 22 0 0 0 0 0 
		18 0 0 0 0 0 0 0 0 0 0 0 0 0 0 0 0 0 0 0 0 0 0 0 0 
		19 0 0 0 0 0 0 0 0 0 0 0 0 0 0 0 0 0 0 0 0 0 0 0 11 
		20 0 0 0 0 0 0 0 0 0 0 0 0 0 0 0 0 0 0 0 0 0 0 0 0 
		21 0 0 0 0 0 0 0 0 0 0 0 0 0 0 0 0 0 0 0 0 0 0 0 0 
		22 0 0 0 0 0 0 0 0 0 0 0 0 0 0 0 0 0 0 0 0 0 0 0 0 
		23 0 0 0 0 0 0 0 0 0 0 0 0 0 0 0 0 0 0 0 0 0 0 0 0 
;
param bs:	 0 1 2 3 4 5 6 7 8 9 10 11 12 13 14 15 16 17 18 19 20 21 22 23 24 25 26 27 28 29 30 31 32 33 34 35 36 37 38 39 40 41 42 43 44 45 46 47 48 49 50 51 52 := 
		0 0 0 0 0 0 0 0 25 0 0 0 0 0 0 0 40 0 0 0 0 0 0 0 0 0 24 0 0 0 0 0 0 0 0 0 37 0 0 0 0 0 0 0 0 0 29 34 25 0 0 0 28 0 
		1 0 0 0 0 0 0 0 24 0 0 0 0 0 0 32 0 0 0 0 0 0 0 0 0 0 0 0 0 0 0 0 0 0 0 0 0 0 0 30 0 0 0 0 0 30 0 0 0 0 0 0 0 0 
		2 0 0 0 0 0 0 20 0 0 0 0 0 0 0 0 22 0 0 0 23 21 0 39 0 0 0 0 0 0 0 0 0 0 0 0 0 40 0 0 37 0 0 0 0 0 0 0 30 0 37 0 0 25 
		3 0 0 0 0 0 0 0 0 22 0 0 35 0 0 0 0 22 0 27 0 36 0 0 37 0 0 0 0 20 0 40 0 0 0 0 0 0 38 0 0 0 0 0 0 0 0 0 0 0 0 0 0 0 
		4 0 0 0 0 0 0 0 0 28 0 0 0 0 0 0 0 0 0 0 0 0 0 0 0 0 0 0 0 0 0 34 0 0 0 0 0 0 0 25 0 0 0 0 0 0 0 0 0 0 0 26 0 0 
		5 0 0 0 0 0 0 0 0 40 0 0 32 0 0 0 0 0 0 0 0 0 0 0 32 0 28 0 0 0 0 34 0 0 0 32 0 0 0 0 0 0 0 0 0 0 20 0 0 0 0 0 27 28 
		6 0 0 20 0 0 0 0 0 0 0 0 0 22 0 0 0 0 0 0 0 0 0 35 0 0 0 0 0 0 0 0 0 0 0 22 0 30 0 0 0 21 0 0 0 0 0 0 0 0 0 0 0 35 
		7 25 24 0 0 0 0 0 0 0 23 39 0 0 0 0 0 0 0 0 0 22 0 0 0 0 0 0 0 0 0 0 0 0 0 0 0 0 0 0 0 0 0 39 0 0 0 0 0 0 0 37 0 0 
		8 0 0 0 22 28 40 0 0 0 0 0 0 0 0 0 0 0 0 0 0 0 0 0 0 0 0 0 0 0 0 0 0 0 0 39 0 0 0 0 0 24 0 0 0 25 0 0 24 0 0 0 0 22 
		9 0 0 0 0 0 0 0 23 0 0 0 0 0 0 0 0 0 0 21 0 0 0 0 0 0 0 0 0 34 0 0 0 0 0 0 0 0 0 0 0 39 0 0 0 32 0 0 0 0 0 0 0 0 
		10 0 0 0 0 0 0 0 39 0 0 0 0 0 0 0 0 30 0 26 0 0 0 0 0 29 0 0 0 0 0 20 0 0 0 0 0 0 0 0 0 0 0 0 26 0 0 0 0 0 0 0 0 0 
		11 0 0 0 35 0 32 0 0 0 0 0 0 0 0 0 37 0 0 31 26 0 0 35 0 0 0 24 0 0 0 35 0 0 0 0 0 0 0 29 0 0 0 0 0 0 0 0 0 0 0 0 0 0 
		12 0 0 0 0 0 0 22 0 0 0 0 0 0 0 0 0 0 38 0 0 0 0 0 0 0 0 0 0 0 0 39 40 22 0 0 33 0 0 0 0 0 0 0 0 0 0 0 0 0 0 0 0 0 
		13 0 0 0 0 0 0 0 0 0 0 0 0 0 0 0 0 0 0 0 0 0 0 0 0 0 0 0 0 0 0 0 0 0 0 23 0 0 0 0 0 0 0 0 0 0 0 0 0 0 0 0 0 40 
		14 0 32 0 0 0 0 0 0 0 0 0 0 0 0 0 0 0 0 0 0 0 0 0 0 37 0 0 0 0 0 0 20 23 0 0 0 0 0 0 0 0 0 23 23 0 26 0 0 25 0 0 0 0 
		15 40 0 22 0 0 0 0 0 0 0 0 37 0 0 0 0 0 0 0 0 0 0 40 25 0 0 0 0 0 0 0 0 0 0 0 0 0 0 0 0 23 0 0 0 0 0 0 0 0 0 0 0 0 
		16 0 0 0 22 0 0 0 0 0 0 30 0 0 0 0 0 0 0 0 0 0 0 0 0 0 0 0 34 0 0 28 0 0 0 0 0 0 0 0 0 0 0 0 0 0 0 0 0 0 0 0 21 0 
		17 0 0 0 0 0 0 0 0 0 0 0 0 38 0 0 0 0 0 0 0 0 0 0 0 0 0 0 32 0 0 0 0 0 0 0 32 0 0 0 0 0 0 24 0 0 0 37 0 28 0 0 0 0 
		18 0 0 0 27 0 0 0 0 0 21 26 31 0 0 0 0 0 0 0 0 0 0 0 30 0 0 0 0 0 0 0 0 0 31 0 39 0 0 0 0 26 0 0 0 0 0 0 0 0 38 0 24 0 
		19 0 0 23 0 0 0 0 0 0 0 0 26 0 0 0 0 0 0 0 0 0 0 0 0 0 38 0 0 0 0 0 0 0 0 27 0 0 0 25 0 0 0 0 0 0 0 0 0 0 0 0 0 0 
		20 0 0 21 36 0 0 0 22 0 0 0 0 0 0 0 0 0 0 0 0 0 0 0 0 20 0 0 0 0 0 0 0 0 0 0 0 0 0 0 0 0 0 0 0 0 0 0 0 0 0 0 0 0 
		21 0 0 0 0 0 0 0 0 0 0 0 0 0 0 0 0 0 0 0 0 0 0 0 0 0 0 35 0 33 0 0 0 0 34 0 0 0 0 0 0 38 0 0 0 0 0 0 0 35 0 0 0 0 
		22 0 0 39 0 0 0 35 0 0 0 0 35 0 0 0 40 0 0 0 0 0 0 0 0 0 0 23 0 0 0 0 0 0 0 39 0 0 0 0 0 0 0 0 0 0 0 0 0 0 37 0 34 0 
		23 0 0 0 37 0 32 0 0 0 0 0 0 0 0 0 25 0 0 30 0 0 0 0 0 0 0 0 0 0 0 0 34 0 0 20 0 21 0 30 32 0 0 0 0 0 0 0 0 0 0 0 28 0 
		24 0 0 0 0 0 0 0 0 0 0 29 0 0 0 37 0 0 0 0 0 20 0 0 0 0 28 38 0 32 0 0 0 0 0 0 0 0 0 22 0 0 0 21 0 0 0 0 0 0 35 0 0 0 
		25 24 0 0 0 0 28 0 0 0 0 0 0 0 0 0 0 0 0 0 38 0 0 0 0 28 0 0 0 0 0 0 0 0 0 0 0 0 37 0 0 0 0 0 0 0 0 32 0 0 0 0 38 0 
		26 0 0 0 0 0 0 0 0 0 0 0 24 0 0 0 0 0 0 0 0 0 35 23 0 38 0 0 0 0 0 0 0 0 0 0 0 0 0 0 24 0 28 0 0 0 38 31 0 0 0 0 0 0 
		27 0 0 0 0 0 0 0 0 0 0 0 0 0 0 0 0 34 32 0 0 0 0 0 0 0 0 0 0 0 0 0 0 0 0 40 0 0 0 0 0 0 0 38 0 0 0 0 0 0 0 0 0 0 
		28 0 0 0 20 0 0 0 0 0 34 0 0 0 0 0 0 0 0 0 0 0 33 0 0 32 0 0 0 0 0 0 0 0 0 0 0 0 0 0 0 0 0 0 0 38 0 39 0 0 0 0 0 0 
		29 0 0 0 0 0 0 0 0 0 0 0 0 0 0 0 0 0 0 0 0 0 0 0 0 0 0 0 0 0 0 0 0 0 0 0 0 0 0 0 36 0 0 0 0 0 0 0 0 0 0 0 0 0 
		30 0 0 0 40 34 34 0 0 0 0 20 35 39 0 0 0 28 0 0 0 0 0 0 0 0 0 0 0 0 0 0 0 24 0 0 0 0 0 0 0 0 0 0 0 0 0 0 0 39 0 35 0 0 
		31 0 0 0 0 0 0 0 0 0 0 0 0 40 0 20 0 0 0 0 0 0 0 0 34 0 0 0 0 0 0 0 0 0 0 0 34 0 0 0 0 0 0 0 0 0 0 30 0 0 0 0 0 0 
		32 0 0 0 0 0 0 0 0 0 0 0 0 22 0 23 0 0 0 0 0 0 0 0 0 0 0 0 0 0 0 24 0 0 0 0 0 0 0 0 0 0 0 0 0 0 0 0 0 0 0 0 0 0 
		33 0 0 0 0 0 0 0 0 0 0 0 0 0 0 0 0 0 0 31 0 0 34 0 0 0 0 0 0 0 0 0 0 0 0 0 0 20 0 0 0 0 0 0 0 0 0 0 0 0 37 0 0 0 
		34 0 0 0 0 0 32 22 0 39 0 0 0 0 23 0 0 0 0 0 27 0 0 39 20 0 0 0 40 0 0 0 0 0 0 0 0 0 20 38 0 0 0 0 0 0 0 20 0 0 0 0 0 0 
		35 37 0 0 0 0 0 0 0 0 0 0 0 33 0 0 0 0 32 39 0 0 0 0 0 0 0 0 0 0 0 0 34 0 0 0 0 0 0 0 0 0 0 0 26 0 0 0 0 0 0 0 0 0 
		36 0 0 40 0 0 0 30 0 0 0 0 0 0 0 0 0 0 0 0 0 0 0 0 21 0 0 0 0 0 0 0 0 0 20 0 0 0 0 0 0 0 0 0 0 0 0 0 26 0 0 0 0 0 
		37 0 0 0 38 0 0 0 0 0 0 0 0 0 0 0 0 0 0 0 0 0 0 0 0 0 37 0 0 0 0 0 0 0 0 20 0 0 0 0 37 0 0 0 0 0 0 0 0 0 0 0 28 0 
		38 0 30 0 0 25 0 0 0 0 0 0 29 0 0 0 0 0 0 0 25 0 0 0 30 22 0 0 0 0 0 0 0 0 0 38 0 0 0 0 0 0 0 0 0 0 36 39 0 0 31 0 0 0 
		39 0 0 37 0 0 0 0 0 0 0 0 0 0 0 0 0 0 0 0 0 0 0 0 32 0 0 24 0 0 36 0 0 0 0 0 0 0 37 0 0 0 0 0 0 0 0 0 0 0 0 0 0 0 
		40 0 0 0 0 0 0 21 0 24 39 0 0 0 0 0 23 0 0 26 0 0 38 0 0 0 0 0 0 0 0 0 0 0 0 0 0 0 0 0 0 0 0 0 0 0 0 32 0 0 0 0 0 40 
		41 0 0 0 0 0 0 0 0 0 0 0 0 0 0 0 0 0 0 0 0 0 0 0 0 0 0 28 0 0 0 0 0 0 0 0 0 0 0 0 0 0 0 0 0 0 0 0 0 0 0 0 23 0 
		42 0 0 0 0 0 0 0 39 0 0 0 0 0 0 23 0 0 24 0 0 0 0 0 0 21 0 0 38 0 0 0 0 0 0 0 0 0 0 0 0 0 0 0 0 0 0 0 25 27 0 0 0 0 
		43 0 0 0 0 0 0 0 0 0 0 26 0 0 0 23 0 0 0 0 0 0 0 0 0 0 0 0 0 0 0 0 0 0 0 0 26 0 0 0 0 0 0 0 0 20 0 0 30 0 0 0 0 31 
		44 0 30 0 0 0 0 0 0 25 32 0 0 0 0 0 0 0 0 0 0 0 0 0 0 0 0 0 0 38 0 0 0 0 0 0 0 0 0 0 0 0 0 0 20 0 0 0 0 0 0 0 0 0 
		45 29 0 0 0 0 20 0 0 0 0 0 0 0 0 26 0 0 0 0 0 0 0 0 0 0 0 38 0 0 0 0 0 0 0 0 0 0 0 36 0 0 0 0 0 0 0 31 0 0 0 0 0 0 
		46 34 0 0 0 0 0 0 0 0 0 0 0 0 0 0 0 0 37 0 0 0 0 0 0 0 32 31 0 39 0 0 30 0 0 20 0 0 0 39 0 32 0 0 0 0 31 0 0 0 22 0 0 36 
		47 25 0 30 0 0 0 0 0 24 0 0 0 0 0 0 0 0 0 0 0 0 0 0 0 0 0 0 0 0 0 0 0 0 0 0 0 26 0 0 0 0 0 25 30 0 0 0 0 0 20 0 0 0 
		48 0 0 0 0 0 0 0 0 0 0 0 0 0 0 25 0 0 28 0 0 0 35 0 0 0 0 0 0 0 0 39 0 0 0 0 0 0 0 0 0 0 0 27 0 0 0 0 0 0 0 0 0 0 
		49 0 0 37 0 0 0 0 0 0 0 0 0 0 0 0 0 0 0 38 0 0 0 37 0 35 0 0 0 0 0 0 0 0 37 0 0 0 0 31 0 0 0 0 0 0 0 22 20 0 0 0 0 0 
		50 0 0 0 0 26 0 0 37 0 0 0 0 0 0 0 0 0 0 0 0 0 0 0 0 0 0 0 0 0 0 35 0 0 0 0 0 0 0 0 0 0 0 0 0 0 0 0 0 0 0 0 0 0 
		51 28 0 0 0 0 27 0 0 0 0 0 0 0 0 0 0 21 0 24 0 0 0 34 28 0 38 0 0 0 0 0 0 0 0 0 0 0 28 0 0 0 23 0 0 0 0 0 0 0 0 0 0 0 
		52 0 0 25 0 0 28 35 0 22 0 0 0 0 40 0 0 0 0 0 0 0 0 0 0 0 0 0 0 0 0 0 0 0 0 0 0 0 0 0 0 40 0 0 31 0 0 36 0 0 0 0 0 0 
;
